
Gurobi 11.0.3 (linux64) logging started Thu Nov 21 16:43:58 2024

Set parameter LogFile to value "/home/yihong/Coding/OR_SUC/SUC_results_bigM100000_thread4/case24_ieee_rts_theta0.5_epsilon0.025_gurobi_seed140000_num_gen100_N_WDR100_load_scaling_factor1_proposed_T8quadra_cost.txt"
Set parameter TimeLimit to value 3600
Gurobi Optimizer version 11.0.3 build v11.0.3rc0 (linux64 - "Ubuntu 20.04.6 LTS")

CPU model: AMD EPYC 7532 32-Core Processor, instruction set [SSE2|AVX|AVX2]
Thread count: 64 physical cores, 128 logical processors, using up to 4 threads

Optimize a model with 16982 rows, 10021 columns and 235066 nonzeros
Model fingerprint: 0x89adeadf
Model has 800 quadratic constraints
Variable types: 9221 continuous, 800 integer (800 binary)
Coefficient statistics:
  Matrix range     [3e-04, 2e+03]
  QMatrix range    [2e-03, 8e-03]
  QLMatrix range   [8e-02, 6e+01]
  Objective range  [1e+00, 1e+00]
  Bounds range     [1e+00, 1e+00]
  RHS range        [1e+00, 8e+03]
Presolve removed 13916 rows and 4507 columns
Presolve time: 0.06s
Presolved: 3066 rows, 5514 columns, 19958 nonzeros
Presolved model has 800 quadratic constraint(s)
Variable types: 4714 continuous, 800 integer (800 binary)

Root relaxation: objective 2.660316e+04, 2537 iterations, 0.04 seconds (0.05 work units)

    Nodes    |    Current Node    |     Objective Bounds      |     Work
 Expl Unexpl |  Obj  Depth IntInf | Incumbent    BestBd   Gap | It/Node Time

     0     0 26603.1625    0    8          - 26603.1625      -     -    0s
     0     0 39383.9727    0  376          - 39383.9727      -     -    0s
     0     0 145392.711    0  240          - 145392.711      -     -    0s
     0     0 146980.349    0  240          - 146980.349      -     -    0s
     0     0 147164.629    0   96          - 147164.629      -     -    0s
     0     0 147165.644    0   96          - 147165.644      -     -    0s
     0     0 147166.245    0   96          - 147166.245      -     -    0s
     0     2 147166.245    0   96          - 147166.245      -     -    0s
H  179   183                    147220.15394 147194.932  0.02%  11.9    1s
*  179   183              52    147220.15394 147194.932  0.02%  12.2    1s

Cutting planes:
  Gomory: 19
  Implied bound: 181
  MIR: 38
  Flow cover: 145

Explored 214 nodes (11535 simplex iterations) in 1.85 seconds (2.29 work units)
Thread count was 4 (of 128 available processors)

Solution count 2: 147220 147220 

Optimal solution found (tolerance 1.00e-03)
Warning: max constraint violation (1.5081e-09) exceeds tolerance
Best objective 1.472201537358e+05, best bound 1.471949315514e+05, gap 0.0171%
